40824
8,123,134,144,254,328,352,599,603,791,821,830,945,1038,1100,1143,1353,1412,1457,1554,1576,1638,1690,1713,1914,1977,2051,2085,2120,2132,2209,2254,2487,2504,2529,2563,2581,2626,2678,2744,2778,2810,2887,2892,2896,2950,3019,3032,3156,3191,3215,3216,3417,3419,3445,3532,3555,3562,3574,3585,3599,3636,3666,3668,3810,3874,3917,4131,4173,4260,4281,4328,4371,4487,4515,4544,4605,4700,4752,4840,4874,4893,4946,4976
